31      4       
7       10      15      10      
0       0       0       0       0       17      2       5       8       17      18      19      20      21      22      23      24      25      26      27      28      29      30      
9       1       1       1       0       4       3       14      15      16      
10      3       2       8       3       2       4       10      
6       4       5       8       5       1       6       
7       5       0       5       3       2       12      13      
4       3       3       7       7       1       7       
10      3       0       2       1       1       9       
8       2       3       5       0       1       11      
7       6       5       10      4       1       31      
4       1       3       4       6       1       31      
2       6       9       14      10      1       31      
9       0       5       5       3       1       31      
5       0       5       5       5       1       31      
5       0       1       5       5       1       31      
8       0       5       4       4       1       31      
3       0       6       5       3       1       31      
10      0       4       2       3       1       31      
10      3       3       7       5       1       31      
7       4       2       5       7       1       31      
2       6       3       9       4       1       31      
6       4       3       6       4       1       31      
6       0       7       5       3       1       31      
3       5       2       5       4       1       31      
2       0       4       3       3       1       31      
5       5       2       5       6       1       31      
1       5       4       9       7       1       31      
6       6       1       7       3       1       31      
4       4       0       3       2       1       31      
5       5       3       7       4       1       31      
7       4       2       5       7       1       31      
0       0       0       0       0       0       
